51
100
70	8
69	9
68	11
67	11
66	9
65	10
64	6
63	7
62	12
61	12
60	10
59	13
58	10
57	6
56	12
55	8
54	12
53	12
52	6
51	10
50	12
49	8
48	7
47	13
46	13
45	6
44	9
43	9
42	9
41	9
40	11
39	12
38	7
37	10
36	11
35	7
34	10
33	13
32	10
31	10
30	8
29	8
28	9
27	11
26	9
25	10
24	13
23	10
22	7
21	12
20	13
